NAME          
ROWS
 N  OBJ
 L  c1
 L  c2
COLUMNS
    MARKER    'MARKER'                 'INTORG'
    x[1]      c1        689
    x[1]      c2        203
    x[1]      OBJ       -8
    x[2]      c1        986
    x[2]      c2        987
    x[2]      OBJ       -980
    x[3]      c1        599
    x[3]      c2        288
    x[3]      OBJ       -19
    x[4]      c1        638
    x[4]      c2        110
    x[4]      OBJ       -591
    x[5]      c1        34
    x[5]      c2        531
    x[5]      OBJ       -47
    x[6]      c1        54
    x[6]      c2        555
    x[6]      OBJ       -11
    x[7]      c1        568
    x[7]      c2        419
    x[7]      OBJ       -132
    x[8]      c1        160
    x[8]      c2        120
    x[8]      OBJ       -283
    x[9]      c1        719
    x[9]      c2        572
    x[9]      OBJ       -592
    x[10]     c1        692
    x[10]     c2        367
    x[10]     OBJ       -665
    x[11]     c1        898
    x[11]     c2        245
    x[11]     OBJ       -13
    x[12]     c1        612
    x[12]     c2        993
    x[12]     OBJ       -79
    x[13]     c1        822
    x[13]     c2        291
    x[13]     OBJ       -458
    x[14]     c1        141
    x[14]     c2        114
    x[14]     OBJ       -920
    x[15]     c1        285
    x[15]     c2        482
    x[15]     OBJ       -497
    x[16]     c1        512
    x[16]     c2        954
    x[16]     OBJ       -912
    x[17]     c1        704
    x[17]     c2        253
    x[17]     OBJ       -559
    x[18]     c1        207
    x[18]     c2        826
    x[18]     OBJ       -321
    x[19]     c1        962
    x[19]     c2        793
    x[19]     OBJ       -150
    x[20]     c1        261
    x[20]     c2        174
    x[20]     OBJ       -473
RHS
    rhs       c1        5272
    rhs       c2        4638
RANGES
BOUNDS
 LO bounds    x[1]      0
 PL bounds    x[1]
 LO bounds    x[2]      0
 PL bounds    x[2]
 LO bounds    x[3]      0
 PL bounds    x[3]
 LO bounds    x[4]      0
 PL bounds    x[4]
 LO bounds    x[5]      0
 PL bounds    x[5]
 LO bounds    x[6]      0
 PL bounds    x[6]
 LO bounds    x[7]      0
 PL bounds    x[7]
 LO bounds    x[8]      0
 PL bounds    x[8]
 LO bounds    x[9]      0
 PL bounds    x[9]
 LO bounds    x[10]     0
 PL bounds    x[10]
 LO bounds    x[11]     0
 PL bounds    x[11]
 LO bounds    x[12]     0
 PL bounds    x[12]
 LO bounds    x[13]     0
 PL bounds    x[13]
 LO bounds    x[14]     0
 PL bounds    x[14]
 LO bounds    x[15]     0
 PL bounds    x[15]
 LO bounds    x[16]     0
 PL bounds    x[16]
 LO bounds    x[17]     0
 PL bounds    x[17]
 LO bounds    x[18]     0
 PL bounds    x[18]
 LO bounds    x[19]     0
 PL bounds    x[19]
 LO bounds    x[20]     0
 PL bounds    x[20]
ENDATA
